[Input Pairs]
1 10
1 17
1 16
1 4
5 2
4 2
6 2
6 3
9 3
12 3
3 4
16 4
15 4
11 4
8 4
9 4
10 4
18 5
5 7
6 5
13 5
14 5
14 6
19 6
12 6
18 7
13 7
12 9
10 16
8 11
14 13
17 16

[Adjacency Matrix]
0 0 0 1 0 0 0 0 0 1 0 0 0 0 0 1 1 0 0 
0 0 0 1 1 1 0 0 0 0 0 0 0 0 0 0 0 0 0 
0 0 0 1 0 1 0 0 1 0 0 1 0 0 0 0 0 0 0 
1 1 1 0 0 0 0 1 1 1 1 0 0 0 1 1 0 0 0 
0 1 0 0 0 1 1 0 0 0 0 0 1 1 0 0 0 1 0 
0 1 1 0 1 0 0 0 0 0 0 1 0 1 0 0 0 0 1 
0 0 0 0 1 0 0 0 0 0 0 0 1 0 0 0 0 1 0 
0 0 0 1 0 0 0 0 0 0 1 0 0 0 0 0 0 0 0 
0 0 1 1 0 0 0 0 0 0 0 1 0 0 0 0 0 0 0 
1 0 0 1 0 0 0 0 0 0 0 0 0 0 0 1 0 0 0 
0 0 0 1 0 0 0 1 0 0 0 0 0 0 0 0 0 0 0 
0 0 1 0 0 1 0 0 1 0 0 0 0 0 0 0 0 0 0 
0 0 0 0 1 0 1 0 0 0 0 0 0 1 0 0 0 0 0 
0 0 0 0 1 1 0 0 0 0 0 0 1 0 0 0 0 0 0 
0 0 0 1 0 0 0 0 0 0 0 0 0 0 0 0 0 0 0 
1 0 0 1 0 0 0 0 0 1 0 0 0 0 0 0 1 0 0 
1 0 0 0 0 0 0 0 0 0 0 0 0 0 0 1 0 0 0 
0 0 0 0 1 0 1 0 0 0 0 0 0 0 0 0 0 0 0 
0 0 0 0 0 1 0 0 0 0 0 0 0 0 0 0 0 0 0 

[Adjacency Matrix]
0 0 0 1 0 0 0 0 0 1 0 0 0 0 0 1 1 0 0 
0 1 0 1 1 1 0 0 0 0 0 0 0 0 0 0 0 0 0 
0 0 0 1 0 1 0 0 1 0 0 1 0 0 0 0 0 0 0 
1 1 1 0 0 0 0 1 1 1 1 0 0 0 1 1 0 0 0 
0 1 0 0 0 1 1 0 0 0 0 0 1 1 0 0 0 1 0 
0 1 1 0 1 0 0 0 0 0 0 1 0 1 0 0 0 0 1 
0 0 0 0 1 0 0 0 0 0 0 0 1 0 0 0 0 1 0 
0 0 0 1 0 0 0 0 0 0 1 0 0 0 0 0 0 0 0 
0 0 1 1 0 0 0 0 0 0 0 1 0 0 0 0 0 0 0 
1 0 0 1 0 0 0 0 0 1 0 0 0 0 0 1 0 0 0 
0 0 0 1 0 0 0 1 0 0 1 0 0 0 0 0 0 0 0 
0 0 1 0 0 1 0 0 1 0 0 1 0 0 0 0 0 0 0 
0 0 0 0 1 0 1 0 0 0 0 0 0 1 0 0 0 0 0 
0 0 0 0 1 1 0 0 0 0 0 0 1 1 0 0 0 0 0 
0 0 0 1 0 0 0 0 0 0 0 0 0 0 1 0 0 0 0 
1 0 0 1 0 0 0 0 0 1 0 0 0 0 0 0 1 0 0 
1 0 0 0 0 0 0 0 0 0 0 0 0 0 0 1 1 0 0 
0 0 0 0 1 0 1 0 0 0 0 0 0 0 0 0 0 1 0 
0 0 0 0 0 1 0 0 0 0 0 0 0 0 0 0 0 0 1 

[Adjacency Matrix]
0 0 0 1 0 0 0 0 0 1 0 0 0 0 0 1 1 0 0 
0 1 0 1 1 1 0 0 0 0 0 0 0 0 0 0 0 0 0 
0 0 0 1 0 1 0 0 1 0 0 1 0 0 0 0 0 0 0 
1 1 1 0 0 0 0 1 1 1 1 0 0 0 1 1 0 0 0 
0 1 0 0 0 1 1 0 0 0 0 0 1 1 0 0 0 1 0 
0 1 1 0 1 2 0 0 0 0 0 1 0 1 0 0 0 0 1 
0 0 0 0 1 0 0 0 0 0 0 0 1 0 0 0 0 1 0 
0 0 0 1 0 0 0 2 0 0 1 0 0 0 0 0 0 0 0 
0 0 1 1 0 0 0 0 2 0 0 1 0 0 0 0 0 0 0 
1 0 0 1 0 0 0 0 0 1 0 0 0 0 0 1 0 0 0 
0 0 0 1 0 0 0 1 0 0 1 0 0 0 0 0 0 0 0 
0 0 1 0 0 1 0 0 1 0 0 1 0 0 0 0 0 0 0 
0 0 0 0 1 0 1 0 0 0 0 0 2 1 0 0 0 0 0 
0 0 0 0 1 1 0 0 0 0 0 0 1 1 0 0 0 0 0 
0 0 0 1 0 0 0 0 0 0 0 0 0 0 1 0 0 0 0 
1 0 0 1 0 0 0 0 0 1 0 0 0 0 0 2 1 0 0 
1 0 0 0 0 0 0 0 0 0 0 0 0 0 0 1 1 0 0 
0 0 0 0 1 0 1 0 0 0 0 0 0 0 0 0 0 1 0 
0 0 0 0 0 1 0 0 0 0 0 0 0 0 0 0 0 0 1 

[Adjacency Matrix]
3 0 0 1 0 0 0 0 0 1 0 0 0 0 0 1 1 0 0 
0 1 0 1 1 1 0 0 0 0 0 0 0 0 0 0 0 0 0 
0 0 3 1 0 1 0 0 1 0 0 1 0 0 0 0 0 0 0 
1 1 1 0 0 0 0 1 1 1 1 0 0 0 1 1 0 0 0 
0 1 0 0 0 1 1 0 0 0 0 0 1 1 0 0 0 1 0 
0 1 1 0 1 2 0 0 0 0 0 1 0 1 0 0 0 0 1 
0 0 0 0 1 0 3 0 0 0 0 0 1 0 0 0 0 1 0 
0 0 0 1 0 0 0 2 0 0 1 0 0 0 0 0 0 0 0 
0 0 1 1 0 0 0 0 2 0 0 1 0 0 0 0 0 0 0 
1 0 0 1 0 0 0 0 0 1 0 0 0 0 0 1 0 0 0 
0 0 0 1 0 0 0 1 0 0 1 0 0 0 0 0 0 0 0 
0 0 1 0 0 1 0 0 1 0 0 1 0 0 0 0 0 0 0 
0 0 0 0 1 0 1 0 0 0 0 0 2 1 0 0 0 0 0 
0 0 0 0 1 1 0 0 0 0 0 0 1 1 0 0 0 0 0 
0 0 0 1 0 0 0 0 0 0 0 0 0 0 1 0 0 0 0 
1 0 0 1 0 0 0 0 0 1 0 0 0 0 0 2 1 0 0 
1 0 0 0 0 0 0 0 0 0 0 0 0 0 0 1 1 0 0 
0 0 0 0 1 0 1 0 0 0 0 0 0 0 0 0 0 1 0 
0 0 0 0 0 1 0 0 0 0 0 0 0 0 0 0 0 0 1 

[Adjacency Matrix]
3 0 0 1 0 0 0 0 0 1 0 0 0 0 0 1 1 0 0 
0 1 0 1 1 1 0 0 0 0 0 0 0 0 0 0 0 0 0 
0 0 3 1 0 1 0 0 1 0 0 1 0 0 0 0 0 0 0 
1 1 1 4 0 0 0 1 1 1 1 0 0 0 1 1 0 0 0 
0 1 0 0 4 1 1 0 0 0 0 0 1 1 0 0 0 1 0 
0 1 1 0 1 2 0 0 0 0 0 1 0 1 0 0 0 0 1 
0 0 0 0 1 0 3 0 0 0 0 0 1 0 0 0 0 1 0 
0 0 0 1 0 0 0 2 0 0 1 0 0 0 0 0 0 0 0 
0 0 1 1 0 0 0 0 2 0 0 1 0 0 0 0 0 0 0 
1 0 0 1 0 0 0 0 0 1 0 0 0 0 0 1 0 0 0 
0 0 0 1 0 0 0 1 0 0 1 0 0 0 0 0 0 0 0 
0 0 1 0 0 1 0 0 1 0 0 1 0 0 0 0 0 0 0 
0 0 0 0 1 0 1 0 0 0 0 0 2 1 0 0 0 0 0 
0 0 0 0 1 1 0 0 0 0 0 0 1 1 0 0 0 0 0 
0 0 0 1 0 0 0 0 0 0 0 0 0 0 1 0 0 0 0 
1 0 0 1 0 0 0 0 0 1 0 0 0 0 0 2 1 0 0 
1 0 0 0 0 0 0 0 0 0 0 0 0 0 0 1 1 0 0 
0 0 0 0 1 0 1 0 0 0 0 0 0 0 0 0 0 1 0 
0 0 0 0 0 1 0 0 0 0 0 0 0 0 0 0 0 0 1 

Minimum Number of Colors Used: 4
[Adjacency Matrix]
3 0 0 1 0 0 0 0 0 1 0 0 0 0 0 1 1 0 0 
0 1 0 1 1 1 0 0 0 0 0 0 0 0 0 0 0 0 0 
0 0 3 1 0 1 0 0 1 0 0 1 0 0 0 0 0 0 0 
1 1 1 4 0 0 0 1 1 1 1 0 0 0 1 1 0 0 0 
0 1 0 0 4 1 1 0 0 0 0 0 1 1 0 0 0 1 0 
0 1 1 0 1 2 0 0 0 0 0 1 0 1 0 0 0 0 1 
0 0 0 0 1 0 3 0 0 0 0 0 1 0 0 0 0 1 0 
0 0 0 1 0 0 0 2 0 0 1 0 0 0 0 0 0 0 0 
0 0 1 1 0 0 0 0 2 0 0 1 0 0 0 0 0 0 0 
1 0 0 1 0 0 0 0 0 1 0 0 0 0 0 1 0 0 0 
0 0 0 1 0 0 0 1 0 0 1 0 0 0 0 0 0 0 0 
0 0 1 0 0 1 0 0 1 0 0 1 0 0 0 0 0 0 0 
0 0 0 0 1 0 1 0 0 0 0 0 2 1 0 0 0 0 0 
0 0 0 0 1 1 0 0 0 0 0 0 1 1 0 0 0 0 0 
0 0 0 1 0 0 0 0 0 0 0 0 0 0 1 0 0 0 0 
1 0 0 1 0 0 0 0 0 1 0 0 0 0 0 2 1 0 0 
1 0 0 0 0 0 0 0 0 0 0 0 0 0 0 1 1 0 0 
0 0 0 0 1 0 1 0 0 0 0 0 0 0 0 0 0 1 0 
0 0 0 0 0 1 0 0 0 0 0 0 0 0 0 0 0 0 1 

